136652
126 5 90 53 70 56 76 85 84 82 59 44 118 55 40 39 54 52 60 100 74 3 1 2 99 4 123 117 116 45 113 111 110 32 36 33 22 49 51 43 46 42 41 48 57 62 61 12 69 7 66 11 58 75 50 13 6 9 18 87 28 47 26 27 20 24 25 37 38 30 34 31 68 35 21 29 23 19 95 97 96 15 10 72 17 14 16 8 124 77 101 98 91 125 78 79 83 63 67 93 92 89 88 107 108 64 109 106 73 112 114 115 121 120 122 119 81 94 0 71 102 103 104 105 80 86 65 
